\ENCODING=ISO-8859-1
\Problem name: 

Minimize
 obj: 2050040733.60343 Y_0_1 + 1606249457.34245 Y_0_2 + 1180079865.4007 Y_0_3
      + 1716368649.76118 Y_0_4 + 470846318.103439 Y_0_5
      + 244013628.763805 Y_0_6 + 795453980.361017 Y_0_7
      + 774849946.324474 Y_0_8 + 1367869986.94512 Y_0_9
      + 2050040733.60343 Y_1_0 + 2358868866.41039 Y_1_2
      + 1189886544.70292 Y_1_3 + 1869769456.49319 Y_1_4
      + 1810394888.98313 Y_1_5 + 1825878506.36134 Y_1_6
      + 1351190962.28898 Y_1_7 + 1855363408.8411 Y_1_8 + 886639028.786272 Y_1_9
      + 1606249457.34245 Y_2_0 + 2358868866.41039 Y_2_1
      + 1220533227.74944 Y_2_3 + 604042770.975815 Y_2_4
      + 1199887484.04318 Y_2_5 + 1489247371.23828 Y_2_6
      + 1934927202.03733 Y_2_7 + 879021690.790589 Y_2_8
      + 1498361541.61265 Y_2_9 + 1180079865.4007 Y_3_0 + 1189886544.70292 Y_3_1
      + 1220533227.74944 Y_3_2 + 881920458.423543 Y_3_4
      + 770482456.324679 Y_3_5 + 939336689.315835 Y_3_6
      + 945097212.529299 Y_3_7 + 695549104.665989 Y_3_8
      + 303745290.888631 Y_3_9 + 1716368649.76118 Y_4_0
      + 1869769456.49319 Y_4_1 + 604042770.975815 Y_4_2
      + 881920458.423543 Y_4_3 + 1248167598.99764 Y_4_5 + 1528124530.5989 Y_4_6
      + 1780433722.62771 Y_4_7 + 948990675.151965 Y_4_8
      + 1086903563.37091 Y_4_9 + 470846318.103439 Y_5_0
      + 1810394888.98313 Y_5_1 + 1199887484.04318 Y_5_2
      + 770482456.324679 Y_5_3 + 1248167598.99764 Y_5_4
      + 292696028.380546 Y_5_6 + 822150509.887924 Y_5_7
      + 325627978.089436 Y_5_8 + 1012871914.511 Y_5_9 + 244013628.763805 Y_6_0
      + 1825878506.36134 Y_6_1 + 1489247371.23828 Y_6_2
      + 939336689.315835 Y_6_3 + 1528124530.5989 Y_6_4 + 292696028.380546 Y_6_5
      + 644677863.476815 Y_6_7 + 618286071.515169 Y_6_8
      + 1124119618.43999 Y_6_9 + 795453980.361017 Y_7_0
      + 1351190962.28898 Y_7_1 + 1934927202.03733 Y_7_2
      + 945097212.529299 Y_7_3 + 1780433722.62771 Y_7_4
      + 822150509.887924 Y_7_5 + 644677863.476815 Y_7_6 + 1083996423.8768 Y_7_8
      + 943366385.05148 Y_7_9 + 774849946.324474 Y_8_0 + 1855363408.8411 Y_8_1
      + 879021690.790589 Y_8_2 + 695549104.665989 Y_8_3
      + 948990675.151965 Y_8_4 + 325627978.089436 Y_8_5
      + 618286071.515169 Y_8_6 + 1083996423.8768 Y_8_7 + 988410418.31296 Y_8_9
      + 1367869986.94512 Y_9_0 + 886639028.786272 Y_9_1
      + 1498361541.61265 Y_9_2 + 303745290.888631 Y_9_3
      + 1086903563.37091 Y_9_4 + 1012871914.511 Y_9_5 + 1124119618.43999 Y_9_6
      + 943366385.05148 Y_9_7 + 988410418.31296 Y_9_8
Subject To
 c1:   X_0_1 + X_0_2 + X_0_3 + X_0_4 + X_0_5 + X_0_6 + X_0_7 + X_0_8 + X_0_9
        = 10
 c2:   X_0_1 - X_1_0 - X_1_2 - X_1_3 - X_1_4 - X_1_5 - X_1_6 - X_1_7 - X_1_8
       - X_1_9 + X_2_1 + X_3_1 + X_4_1 + X_5_1 + X_6_1 + X_7_1 + X_8_1 + X_9_1
        = 1
 c3:   X_0_2 + X_1_2 - X_2_0 - X_2_1 - X_2_3 - X_2_4 - X_2_5 - X_2_6 - X_2_7
       - X_2_8 - X_2_9 + X_3_2 + X_4_2 + X_5_2 + X_6_2 + X_7_2 + X_8_2 + X_9_2
        = 1
 c4:   X_0_3 + X_1_3 + X_2_3 - X_3_0 - X_3_1 - X_3_2 - X_3_4 - X_3_5 - X_3_6
       - X_3_7 - X_3_8 - X_3_9 + X_4_3 + X_5_3 + X_6_3 + X_7_3 + X_8_3 + X_9_3
        = 1
 c5:   X_0_4 + X_1_4 + X_2_4 + X_3_4 - X_4_0 - X_4_1 - X_4_2 - X_4_3 - X_4_5
       - X_4_6 - X_4_7 - X_4_8 - X_4_9 + X_5_4 + X_6_4 + X_7_4 + X_8_4 + X_9_4
        = 1
 c6:   X_0_5 + X_1_5 + X_2_5 + X_3_5 + X_4_5 - X_5_0 - X_5_1 - X_5_2 - X_5_3
       - X_5_4 - X_5_6 - X_5_7 - X_5_8 - X_5_9 + X_6_5 + X_7_5 + X_8_5 + X_9_5
        = 1
 c7:   X_0_6 + X_1_6 + X_2_6 + X_3_6 + X_4_6 + X_5_6 - X_6_0 - X_6_1 - X_6_2
       - X_6_3 - X_6_4 - X_6_5 - X_6_7 - X_6_8 - X_6_9 + X_7_6 + X_8_6 + X_9_6
        = 1
 c8:   X_0_7 + X_1_7 + X_2_7 + X_3_7 + X_4_7 + X_5_7 + X_6_7 - X_7_0 - X_7_1
       - X_7_2 - X_7_3 - X_7_4 - X_7_5 - X_7_6 - X_7_8 - X_7_9 + X_8_7 + X_9_7
        = 1
 c9:   X_0_8 + X_1_8 + X_2_8 + X_3_8 + X_4_8 + X_5_8 + X_6_8 + X_7_8 - X_8_0
       - X_8_1 - X_8_2 - X_8_3 - X_8_4 - X_8_5 - X_8_6 - X_8_7 - X_8_9 + X_9_8
        = 1
 c10:  X_0_9 + X_1_9 + X_2_9 + X_3_9 + X_4_9 + X_5_9 + X_6_9 + X_7_9 + X_8_9
       - X_9_0 - X_9_1 - X_9_2 - X_9_3 - X_9_4 - X_9_5 - X_9_6 - X_9_7 - X_9_8
        = 1
 c11:  Y_0_1 + Y_0_2 + Y_0_3 + Y_0_4 + Y_0_5 + Y_0_6 + Y_0_7 + Y_0_8 + Y_0_9
        = 1
 c12:  Y_1_0 + Y_1_2 + Y_1_3 + Y_1_4 + Y_1_5 + Y_1_6 + Y_1_7 + Y_1_8 + Y_1_9
        = 1
 c13:  Y_2_0 + Y_2_1 + Y_2_3 + Y_2_4 + Y_2_5 + Y_2_6 + Y_2_7 + Y_2_8 + Y_2_9
        = 1
 c14:  Y_3_0 + Y_3_1 + Y_3_2 + Y_3_4 + Y_3_5 + Y_3_6 + Y_3_7 + Y_3_8 + Y_3_9
        = 1
 c15:  Y_4_0 + Y_4_1 + Y_4_2 + Y_4_3 + Y_4_5 + Y_4_6 + Y_4_7 + Y_4_8 + Y_4_9
        = 1
 c16:  Y_5_0 + Y_5_1 + Y_5_2 + Y_5_3 + Y_5_4 + Y_5_6 + Y_5_7 + Y_5_8 + Y_5_9
        = 1
 c17:  Y_6_0 + Y_6_1 + Y_6_2 + Y_6_3 + Y_6_4 + Y_6_5 + Y_6_7 + Y_6_8 + Y_6_9
        = 1
 c18:  Y_7_0 + Y_7_1 + Y_7_2 + Y_7_3 + Y_7_4 + Y_7_5 + Y_7_6 + Y_7_8 + Y_7_9
        = 1
 c19:  Y_8_0 + Y_8_1 + Y_8_2 + Y_8_3 + Y_8_4 + Y_8_5 + Y_8_6 + Y_8_7 + Y_8_9
        = 1
 c20:  Y_9_0 + Y_9_1 + Y_9_2 + Y_9_3 + Y_9_4 + Y_9_5 + Y_9_6 + Y_9_7 + Y_9_8
        = 1
 c21:  Y_1_0 + Y_2_0 + Y_3_0 + Y_4_0 + Y_5_0 + Y_6_0 + Y_7_0 + Y_8_0 + Y_9_0
        = 1
 c22:  Y_0_1 + Y_2_1 + Y_3_1 + Y_4_1 + Y_5_1 + Y_6_1 + Y_7_1 + Y_8_1 + Y_9_1
        = 1
 c23:  Y_0_2 + Y_1_2 + Y_3_2 + Y_4_2 + Y_5_2 + Y_6_2 + Y_7_2 + Y_8_2 + Y_9_2
        = 1
 c24:  Y_0_3 + Y_1_3 + Y_2_3 + Y_4_3 + Y_5_3 + Y_6_3 + Y_7_3 + Y_8_3 + Y_9_3
        = 1
 c25:  Y_0_4 + Y_1_4 + Y_2_4 + Y_3_4 + Y_5_4 + Y_6_4 + Y_7_4 + Y_8_4 + Y_9_4
        = 1
 c26:  Y_0_5 + Y_1_5 + Y_2_5 + Y_3_5 + Y_4_5 + Y_6_5 + Y_7_5 + Y_8_5 + Y_9_5
        = 1
 c27:  Y_0_6 + Y_1_6 + Y_2_6 + Y_3_6 + Y_4_6 + Y_5_6 + Y_7_6 + Y_8_6 + Y_9_6
        = 1
 c28:  Y_0_7 + Y_1_7 + Y_2_7 + Y_3_7 + Y_4_7 + Y_5_7 + Y_6_7 + Y_8_7 + Y_9_7
        = 1
 c29:  Y_0_8 + Y_1_8 + Y_2_8 + Y_3_8 + Y_4_8 + Y_5_8 + Y_6_8 + Y_7_8 + Y_9_8
        = 1
 c30:  Y_0_9 + Y_1_9 + Y_2_9 + Y_3_9 + Y_4_9 + Y_5_9 + Y_6_9 + Y_7_9 + Y_8_9
        = 1
 c31:  X_0_1 - 10 Y_0_1 <= 0
 c32:  X_0_2 - 10 Y_0_2 <= 0
 c33:  X_0_3 - 10 Y_0_3 <= 0
 c34:  X_0_4 - 10 Y_0_4 <= 0
 c35:  X_0_5 - 10 Y_0_5 <= 0
 c36:  X_0_6 - 10 Y_0_6 <= 0
 c37:  X_0_7 - 10 Y_0_7 <= 0
 c38:  X_0_8 - 10 Y_0_8 <= 0
 c39:  X_0_9 - 10 Y_0_9 <= 0
 c40:  X_1_0 - 10 Y_1_0 <= 0
 c41:  X_1_2 - 10 Y_1_2 <= 0
 c42:  X_1_3 - 10 Y_1_3 <= 0
 c43:  X_1_4 - 10 Y_1_4 <= 0
 c44:  X_1_5 - 10 Y_1_5 <= 0
 c45:  X_1_6 - 10 Y_1_6 <= 0
 c46:  X_1_7 - 10 Y_1_7 <= 0
 c47:  X_1_8 - 10 Y_1_8 <= 0
 c48:  X_1_9 - 10 Y_1_9 <= 0
 c49:  X_2_0 - 10 Y_2_0 <= 0
 c50:  X_2_1 - 10 Y_2_1 <= 0
 c51:  X_2_3 - 10 Y_2_3 <= 0
 c52:  X_2_4 - 10 Y_2_4 <= 0
 c53:  X_2_5 - 10 Y_2_5 <= 0
 c54:  X_2_6 - 10 Y_2_6 <= 0
 c55:  X_2_7 - 10 Y_2_7 <= 0
 c56:  X_2_8 - 10 Y_2_8 <= 0
 c57:  X_2_9 - 10 Y_2_9 <= 0
 c58:  X_3_0 - 10 Y_3_0 <= 0
 c59:  X_3_1 - 10 Y_3_1 <= 0
 c60:  X_3_2 - 10 Y_3_2 <= 0
 c61:  X_3_4 - 10 Y_3_4 <= 0
 c62:  X_3_5 - 10 Y_3_5 <= 0
 c63:  X_3_6 - 10 Y_3_6 <= 0
 c64:  X_3_7 - 10 Y_3_7 <= 0
 c65:  X_3_8 - 10 Y_3_8 <= 0
 c66:  X_3_9 - 10 Y_3_9 <= 0
 c67:  X_4_0 - 10 Y_4_0 <= 0
 c68:  X_4_1 - 10 Y_4_1 <= 0
 c69:  X_4_2 - 10 Y_4_2 <= 0
 c70:  X_4_3 - 10 Y_4_3 <= 0
 c71:  X_4_5 - 10 Y_4_5 <= 0
 c72:  X_4_6 - 10 Y_4_6 <= 0
 c73:  X_4_7 - 10 Y_4_7 <= 0
 c74:  X_4_8 - 10 Y_4_8 <= 0
 c75:  X_4_9 - 10 Y_4_9 <= 0
 c76:  X_5_0 - 10 Y_5_0 <= 0
 c77:  X_5_1 - 10 Y_5_1 <= 0
 c78:  X_5_2 - 10 Y_5_2 <= 0
 c79:  X_5_3 - 10 Y_5_3 <= 0
 c80:  X_5_4 - 10 Y_5_4 <= 0
 c81:  X_5_6 - 10 Y_5_6 <= 0
 c82:  X_5_7 - 10 Y_5_7 <= 0
 c83:  X_5_8 - 10 Y_5_8 <= 0
 c84:  X_5_9 - 10 Y_5_9 <= 0
 c85:  X_6_0 - 10 Y_6_0 <= 0
 c86:  X_6_1 - 10 Y_6_1 <= 0
 c87:  X_6_2 - 10 Y_6_2 <= 0
 c88:  X_6_3 - 10 Y_6_3 <= 0
 c89:  X_6_4 - 10 Y_6_4 <= 0
 c90:  X_6_5 - 10 Y_6_5 <= 0
 c91:  X_6_7 - 10 Y_6_7 <= 0
 c92:  X_6_8 - 10 Y_6_8 <= 0
 c93:  X_6_9 - 10 Y_6_9 <= 0
 c94:  X_7_0 - 10 Y_7_0 <= 0
 c95:  X_7_1 - 10 Y_7_1 <= 0
 c96:  X_7_2 - 10 Y_7_2 <= 0
 c97:  X_7_3 - 10 Y_7_3 <= 0
 c98:  X_7_4 - 10 Y_7_4 <= 0
 c99:  X_7_5 - 10 Y_7_5 <= 0
 c100: X_7_6 - 10 Y_7_6 <= 0
 c101: X_7_8 - 10 Y_7_8 <= 0
 c102: X_7_9 - 10 Y_7_9 <= 0
 c103: X_8_0 - 10 Y_8_0 <= 0
 c104: X_8_1 - 10 Y_8_1 <= 0
 c105: X_8_2 - 10 Y_8_2 <= 0
 c106: X_8_3 - 10 Y_8_3 <= 0
 c107: X_8_4 - 10 Y_8_4 <= 0
 c108: X_8_5 - 10 Y_8_5 <= 0
 c109: X_8_6 - 10 Y_8_6 <= 0
 c110: X_8_7 - 10 Y_8_7 <= 0
 c111: X_8_9 - 10 Y_8_9 <= 0
 c112: X_9_0 - 10 Y_9_0 <= 0
 c113: X_9_1 - 10 Y_9_1 <= 0
 c114: X_9_2 - 10 Y_9_2 <= 0
 c115: X_9_3 - 10 Y_9_3 <= 0
 c116: X_9_4 - 10 Y_9_4 <= 0
 c117: X_9_5 - 10 Y_9_5 <= 0
 c118: X_9_6 - 10 Y_9_6 <= 0
 c119: X_9_7 - 10 Y_9_7 <= 0
 c120: X_9_8 - 10 Y_9_8 <= 0
Bounds
      X_0_1 >= 0
      X_0_2 >= 0
      X_0_3 >= 0
      X_0_4 >= 0
      X_0_5 >= 0
      X_0_6 >= 0
      X_0_7 >= 0
      X_0_8 >= 0
      X_0_9 >= 0
      X_1_0 >= 0
      X_1_2 >= 0
      X_1_3 >= 0
      X_1_4 >= 0
      X_1_5 >= 0
      X_1_6 >= 0
      X_1_7 >= 0
      X_1_8 >= 0
      X_1_9 >= 0
      X_2_0 >= 0
      X_2_1 >= 0
      X_2_3 >= 0
      X_2_4 >= 0
      X_2_5 >= 0
      X_2_6 >= 0
      X_2_7 >= 0
      X_2_8 >= 0
      X_2_9 >= 0
      X_3_0 >= 0
      X_3_1 >= 0
      X_3_2 >= 0
      X_3_4 >= 0
      X_3_5 >= 0
      X_3_6 >= 0
      X_3_7 >= 0
      X_3_8 >= 0
      X_3_9 >= 0
      X_4_0 >= 0
      X_4_1 >= 0
      X_4_2 >= 0
      X_4_3 >= 0
      X_4_5 >= 0
      X_4_6 >= 0
      X_4_7 >= 0
      X_4_8 >= 0
      X_4_9 >= 0
      X_5_0 >= 0
      X_5_1 >= 0
      X_5_2 >= 0
      X_5_3 >= 0
      X_5_4 >= 0
      X_5_6 >= 0
      X_5_7 >= 0
      X_5_8 >= 0
      X_5_9 >= 0
      X_6_0 >= 0
      X_6_1 >= 0
      X_6_2 >= 0
      X_6_3 >= 0
      X_6_4 >= 0
      X_6_5 >= 0
      X_6_7 >= 0
      X_6_8 >= 0
      X_6_9 >= 0
      X_7_0 >= 0
      X_7_1 >= 0
      X_7_2 >= 0
      X_7_3 >= 0
      X_7_4 >= 0
      X_7_5 >= 0
      X_7_6 >= 0
      X_7_8 >= 0
      X_7_9 >= 0
      X_8_0 >= 0
      X_8_1 >= 0
      X_8_2 >= 0
      X_8_3 >= 0
      X_8_4 >= 0
      X_8_5 >= 0
      X_8_6 >= 0
      X_8_7 >= 0
      X_8_9 >= 0
      X_9_0 >= 0
      X_9_1 >= 0
      X_9_2 >= 0
      X_9_3 >= 0
      X_9_4 >= 0
      X_9_5 >= 0
      X_9_6 >= 0
      X_9_7 >= 0
      X_9_8 >= 0
 0 <= Y_0_1 <= 1
 0 <= Y_0_2 <= 1
 0 <= Y_0_3 <= 1
 0 <= Y_0_4 <= 1
 0 <= Y_0_5 <= 1
 0 <= Y_0_6 <= 1
 0 <= Y_0_7 <= 1
 0 <= Y_0_8 <= 1
 0 <= Y_0_9 <= 1
 0 <= Y_1_0 <= 1
 0 <= Y_1_2 <= 1
 0 <= Y_1_3 <= 1
 0 <= Y_1_4 <= 1
 0 <= Y_1_5 <= 1
 0 <= Y_1_6 <= 1
 0 <= Y_1_7 <= 1
 0 <= Y_1_8 <= 1
 0 <= Y_1_9 <= 1
 0 <= Y_2_0 <= 1
 0 <= Y_2_1 <= 1
 0 <= Y_2_3 <= 1
 0 <= Y_2_4 <= 1
 0 <= Y_2_5 <= 1
 0 <= Y_2_6 <= 1
 0 <= Y_2_7 <= 1
 0 <= Y_2_8 <= 1
 0 <= Y_2_9 <= 1
 0 <= Y_3_0 <= 1
 0 <= Y_3_1 <= 1
 0 <= Y_3_2 <= 1
 0 <= Y_3_4 <= 1
 0 <= Y_3_5 <= 1
 0 <= Y_3_6 <= 1
 0 <= Y_3_7 <= 1
 0 <= Y_3_8 <= 1
 0 <= Y_3_9 <= 1
 0 <= Y_4_0 <= 1
 0 <= Y_4_1 <= 1
 0 <= Y_4_2 <= 1
 0 <= Y_4_3 <= 1
 0 <= Y_4_5 <= 1
 0 <= Y_4_6 <= 1
 0 <= Y_4_7 <= 1
 0 <= Y_4_8 <= 1
 0 <= Y_4_9 <= 1
 0 <= Y_5_0 <= 1
 0 <= Y_5_1 <= 1
 0 <= Y_5_2 <= 1
 0 <= Y_5_3 <= 1
 0 <= Y_5_4 <= 1
 0 <= Y_5_6 <= 1
 0 <= Y_5_7 <= 1
 0 <= Y_5_8 <= 1
 0 <= Y_5_9 <= 1
 0 <= Y_6_0 <= 1
 0 <= Y_6_1 <= 1
 0 <= Y_6_2 <= 1
 0 <= Y_6_3 <= 1
 0 <= Y_6_4 <= 1
 0 <= Y_6_5 <= 1
 0 <= Y_6_7 <= 1
 0 <= Y_6_8 <= 1
 0 <= Y_6_9 <= 1
 0 <= Y_7_0 <= 1
 0 <= Y_7_1 <= 1
 0 <= Y_7_2 <= 1
 0 <= Y_7_3 <= 1
 0 <= Y_7_4 <= 1
 0 <= Y_7_5 <= 1
 0 <= Y_7_6 <= 1
 0 <= Y_7_8 <= 1
 0 <= Y_7_9 <= 1
 0 <= Y_8_0 <= 1
 0 <= Y_8_1 <= 1
 0 <= Y_8_2 <= 1
 0 <= Y_8_3 <= 1
 0 <= Y_8_4 <= 1
 0 <= Y_8_5 <= 1
 0 <= Y_8_6 <= 1
 0 <= Y_8_7 <= 1
 0 <= Y_8_9 <= 1
 0 <= Y_9_0 <= 1
 0 <= Y_9_1 <= 1
 0 <= Y_9_2 <= 1
 0 <= Y_9_3 <= 1
 0 <= Y_9_4 <= 1
 0 <= Y_9_5 <= 1
 0 <= Y_9_6 <= 1
 0 <= Y_9_7 <= 1
 0 <= Y_9_8 <= 1
Generals
 X_0_1  X_0_2  X_0_3  X_0_4  X_0_5  X_0_6  X_0_7  X_0_8  X_0_9  X_1_0  X_1_2 
 X_1_3  X_1_4  X_1_5  X_1_6  X_1_7  X_1_8  X_1_9  X_2_0  X_2_1  X_2_3  X_2_4 
 X_2_5  X_2_6  X_2_7  X_2_8  X_2_9  X_3_0  X_3_1  X_3_2  X_3_4  X_3_5  X_3_6 
 X_3_7  X_3_8  X_3_9  X_4_0  X_4_1  X_4_2  X_4_3  X_4_5  X_4_6  X_4_7  X_4_8 
 X_4_9  X_5_0  X_5_1  X_5_2  X_5_3  X_5_4  X_5_6  X_5_7  X_5_8  X_5_9  X_6_0 
 X_6_1  X_6_2  X_6_3  X_6_4  X_6_5  X_6_7  X_6_8  X_6_9  X_7_0  X_7_1  X_7_2 
 X_7_3  X_7_4  X_7_5  X_7_6  X_7_8  X_7_9  X_8_0  X_8_1  X_8_2  X_8_3  X_8_4 
 X_8_5  X_8_6  X_8_7  X_8_9  X_9_0  X_9_1  X_9_2  X_9_3  X_9_4  X_9_5  X_9_6 
 X_9_7  X_9_8  Y_0_1  Y_0_2  Y_0_3  Y_0_4  Y_0_5  Y_0_6  Y_0_7  Y_0_8  Y_0_9 
 Y_1_0  Y_1_2  Y_1_3  Y_1_4  Y_1_5  Y_1_6  Y_1_7  Y_1_8  Y_1_9  Y_2_0  Y_2_1 
 Y_2_3  Y_2_4  Y_2_5  Y_2_6  Y_2_7  Y_2_8  Y_2_9  Y_3_0  Y_3_1  Y_3_2  Y_3_4 
 Y_3_5  Y_3_6  Y_3_7  Y_3_8  Y_3_9  Y_4_0  Y_4_1  Y_4_2  Y_4_3  Y_4_5  Y_4_6 
 Y_4_7  Y_4_8  Y_4_9  Y_5_0  Y_5_1  Y_5_2  Y_5_3  Y_5_4  Y_5_6  Y_5_7  Y_5_8 
 Y_5_9  Y_6_0  Y_6_1  Y_6_2  Y_6_3  Y_6_4  Y_6_5  Y_6_7  Y_6_8  Y_6_9  Y_7_0 
 Y_7_1  Y_7_2  Y_7_3  Y_7_4  Y_7_5  Y_7_6  Y_7_8  Y_7_9  Y_8_0  Y_8_1  Y_8_2 
 Y_8_3  Y_8_4  Y_8_5  Y_8_6  Y_8_7  Y_8_9  Y_9_0  Y_9_1  Y_9_2  Y_9_3  Y_9_4 
 Y_9_5  Y_9_6  Y_9_7  Y_9_8 
End
